Function: get_partitions took 0.00012302398681640625 seconds
Function: map_flows_partitions took 0.00030875205993652344 seconds
Building model with:
15 devices, 64 partitions and 320 flows
Using license file /home/anup/gurobi.lic
Academic license - for non-commercial use only
Function: MIP.add_frac_mem_var took 0.0061855316162109375 seconds
Function: MIP.add_coverage_constraints took 0.008026599884033203 seconds
Function: MIP.add_accuracy_constraints took 0.017380237579345703 seconds
Function: MIP.add_capacity_constraints took 0.0072231292724609375 seconds
Changed value of parameter TimeLimit to 120.0
   Prev: inf  Min: 0.0  Max: inf  Default: inf
Changed value of parameter NonConvex to 2
   Prev: -1  Min: -1  Max: 2  Default: -1
Parameter NonConvex unchanged
   Value: 2  Min: -1  Max: 2  Default: -1
Parameter NonConvex unchanged
   Value: 2  Min: -1  Max: 2  Default: -1
Parameter NonConvex unchanged
   Value: 2  Min: -1  Max: 2  Default: -1
Parameter NonConvex unchanged
   Value: 2  Min: -1  Max: 2  Default: -1
Parameter NonConvex unchanged
   Value: 2  Min: -1  Max: 2  Default: -1
Parameter NonConvex unchanged
   Value: 2  Min: -1  Max: 2  Default: -1
Parameter NonConvex unchanged
   Value: 2  Min: -1  Max: 2  Default: -1
--------------------------------------------------
Starting model update
Model update took: 0.0001571178436279297 s
--------------------------------------------------
Starting model optimize
Gurobi Optimizer version 9.0.0 build v9.0.0rc2 (linux64)
Optimize a model with 1199 rows, 1737 columns and 5300 nonzeros
Model fingerprint: 0x3db8196e
Model has 24 quadratic constraints
Model has 17 general constraints
Variable types: 912 continuous, 825 integer (809 binary)
Coefficient statistics:
  Matrix range     [1e-04, 5e+01]
  QMatrix range    [1e+00, 1e+00]
  QLMatrix range   [1e+00, 1e+00]
  Objective range  [1e+00, 1e+00]
  Bounds range     [1e+00, 3e+04]
  RHS range        [7e-01, 2e+01]

---------------------------------------------------------------------------
Multi-objectives: starting optimization with 2 objectives ... 
---------------------------------------------------------------------------

Multi-objectives: applying initial presolve ...
---------------------------------------------------------------------------

Presolve removed 803 rows and 759 columns
Presolve time: 0.01s
Presolved: 492 rows and 979 columns
---------------------------------------------------------------------------

Multi-objectives: optimize objective 1 (ns) ...
---------------------------------------------------------------------------

Presolve removed 32 rows and 9 columns
Presolve time: 0.01s
Presolved: 556 rows, 971 columns, 3193 nonzeros
Presolved model has 24 SOS constraint(s)
Presolved model has 24 bilinear constraint(s)
Variable types: 98 continuous, 873 integer (849 binary)

Root relaxation: objective 1.020408e+01, 850 iterations, 0.01 seconds

    Nodes    |    Current Node    |     Objective Bounds      |     Work
 Expl Unexpl |  Obj  Depth IntInf | Incumbent    BestBd   Gap | It/Node Time

     0     0   10.20408    0   27          -   10.20408      -     -    0s
     0     0   10.20930    0   81          -   10.20930      -     -    0s
     0     0   11.21703    0   98          -   11.21703      -     -    0s
     0     0   11.21971    0   87          -   11.21971      -     -    0s
     0     0   11.24110    0  107          -   11.24110      -     -    0s
H    0     0                      83.1067470   11.24110  86.5%     -    0s
     0     0   11.24110    0  107   83.10675   11.24110  86.5%     -    0s
     0     0   11.57778    0  125   83.10675   11.57778  86.1%     -    0s
     0     0   11.58494    0   97   83.10675   11.58494  86.1%     -    0s
     0     0   11.59029    0  106   83.10675   11.59029  86.1%     -    0s
     0     0   11.59029    0  111   83.10675   11.59029  86.1%     -    0s
     0     0   11.59029    0  119   83.10675   11.59029  86.1%     -    0s
     0     0   11.59029    0  121   83.10675   11.59029  86.1%     -    0s
     0     0   11.59029    0   86   83.10675   11.59029  86.1%     -    0s
     0     0   11.59029    0  104   83.10675   11.59029  86.1%     -    0s
     0     0   11.59029    0   81   83.10675   11.59029  86.1%     -    0s
     0     0   11.59029    0   78   83.10675   11.59029  86.1%     -    0s
H    0     0                      17.7166770   11.59029  34.6%     -    0s
     0     2   11.59029    0   69   17.71668   11.59029  34.6%     -    0s
*  174   125              31      17.7166759   12.23425  30.9%  10.6    0s
* 1406   613              29      14.2857143   13.32725  6.71%  19.7    2s

Cutting planes:
  Gomory: 22
  Cover: 3
  Clique: 6
  MIR: 1
  Flow cover: 1
  RLT: 24
  Relax-and-lift: 1

Explored 1610 nodes (34705 simplex iterations) in 2.33 seconds
Thread count was 8 (of 8 available processors)

Solution count 4: 14.2857 17.7167 17.7167 83.1067 

Optimal solution found (tolerance 1.00e-04)
Warning: max constraint violation (2.4468e-06) exceeds tolerance
Best objective 1.428571428571e+01, best bound 1.428571428571e+01, gap 0.0000%
---------------------------------------------------------------------------

Multi-objectives: optimize objective 2 (res) ...
---------------------------------------------------------------------------


Loaded user MIP start with objective 689.693

Presolve removed 57 rows and 34 columns
Presolve time: 0.01s
Presolved: 532 rows, 945 columns, 3128 nonzeros
Presolved model has 24 bilinear constraint(s)
Variable types: 81 continuous, 864 integer (833 binary)

Root relaxation: objective 5.950374e+02, 873 iterations, 0.01 seconds

    Nodes    |    Current Node    |     Objective Bounds      |     Work
 Expl Unexpl |  Obj  Depth IntInf | Incumbent    BestBd   Gap | It/Node Time

     0     0  595.03737    0   36  689.69292  595.03737  13.7%     -    2s
     0     0  624.14104    0   61  689.69292  624.14104  9.50%     -    2s
     0     0  625.26763    0   46  689.69292  625.26763  9.34%     -    2s
     0     0  634.54837    0   55  689.69292  634.54837  8.00%     -    2s
     0     0  634.54837    0   57  689.69292  634.54837  8.00%     -    2s
     0     0  643.71325    0   14  689.69292  643.71325  6.67%     -    2s
     0     0  643.75036    0   14  689.69292  643.75036  6.66%     -    2s
     0     0  648.02625    0   32  689.69292  648.02625  6.04%     -    2s
H    0     0                     649.6929159  648.02625  0.26%     -    2s
     0     0  648.02625    0   32  649.69292  648.02625  0.26%     -    2s
     0     0  648.02625    0    6  649.69292  648.02625  0.26%     -    2s
     0     0  648.02625    0   34  649.69292  648.02625  0.26%     -    2s
     0     0     cutoff    0       649.69292  649.69292  0.00%     -    2s

Cutting planes:
  Gomory: 5
  Cover: 5
  Implied bound: 14
  Clique: 3
  MIR: 25
  StrongCG: 1
  RLT: 7
  Relax-and-lift: 5

Explored 1 nodes (3878 simplex iterations) in 2.53 seconds
Thread count was 8 (of 8 available processors)

Solution count 2: 649.693 689.693 

Optimal solution found (tolerance 1.00e-04)
Best objective 6.496929159164e+02, best bound 6.496929159164e+02, gap 0.0000%

---------------------------------------------------------------------------
Multi-objectives: solved in 2.53 seconds, solution count 6

Model optimize took: 2.5334880352020264 seconds
--------------------------------------------------

Solution quality statistics for model Netmon :
  Maximum violation:
    Bound       : 0.00000000e+00
    Constraint  : 2.70006240e-13
    Integrality : 0.00000000e+00

Throughput: 70.00000000000007 Mpps, ns per packet: 14.285714285714272
Resources: 649.6929159164429
Used Cores: 51.0, Total CPUS: 8, Switch Memory: 3925.1953125

Sketch (0) (cm: eps0: 0.000625, del0: 0.05, min_mem: 16.9921875)
Par: 1, Rows: 3
(-0.000,9)    (0.000,1)    (1.000,8)    (-0.000,0)    (0.000,14)    (1.000,6)    (-0.000,13)    (-0.000,12)    (-0.000,4)    (-0.000,11)    (0.000,3)    (-0.000,10)    (-0.000,2)    
Total frac: 2.000

Sketch (1) (cm: eps0: 0.000625, del0: 0.05, min_mem: 16.9921875)
Par: 1, Rows: 3
(0.000,14)    (0.000,5)    (0.000,6)    (-0.000,11)    (0.000,12)    (1.000,3)    (-0.000,4)    (-0.000,9)    (1.000,10)    (0.000,1)    (-0.000,2)    (0.000,8)    (-0.000,7)    (-0.000,13)    
Total frac: 2.000

Sketch (2) (cm: eps0: 0.000625, del0: 0.05, min_mem: 16.9921875)
Par: 1, Rows: 3
(0.000,3)    (-0.000,8)    (0.000,14)    (-0.000,0)    (0.000,6)    (-0.000,13)    (-0.000,5)    (0.000,7)    (1.000,10)    (1.000,12)    (-0.000,2)    (-0.000,9)    (0.000,4)    (-0.000,11)    
Total frac: 2.000

Sketch (3) (cm: eps0: 0.000625, del0: 0.05, min_mem: 16.9921875)
Par: 1, Rows: 3
(0.000,7)    (-0.000,9)    (-0.000,10)    (-0.000,11)    (0.000,1)    (-0.000,12)    (-0.000,2)    (0.000,3)    (-0.000,4)    (1.000,13)    (1.000,8)    (0.000,14)    (0.000,5)    (-0.000,0)    (-0.000,6)    
Total frac: 2.000

Sketch (4) (cm: eps0: 0.000625, del0: 0.05, min_mem: 16.9921875)
Par: 1, Rows: 3
(-0.000,11)    (-0.000,7)    (-0.000,3)    (-0.000,13)    (1.000,9)    (-0.000,5)    (0.000,12)    (1.000,1)    (-0.000,8)    (0.000,4)    (-0.000,0)    (1.000,10)    (-0.000,2)    (0.000,14)    (0.000,6)    
Total frac: 3.000

Sketch (5) (cm: eps0: 0.000625, del0: 0.05, min_mem: 16.9921875)
Par: 1, Rows: 3
(1.000,8)    (0.000,4)    (-0.000,0)    (0.000,10)    (0.000,2)    (0.000,14)    (0.000,6)    (1.000,11)    (0.000,7)    (0.000,3)    (-0.000,13)    (0.000,9)    (0.000,5)    (-0.000,1)    (0.000,12)    
Total frac: 2.000

Sketch (6) (cm: eps0: 0.000625, del0: 0.05, min_mem: 16.9921875)
Par: 1, Rows: 3
(-0.000,13)    (-0.000,9)    (0.000,5)    (-0.000,11)    (0.000,7)    (-0.000,10)    (1.000,12)    (-0.000,2)    (-0.000,8)    (0.000,14)    (1.000,4)    (-0.000,0)    (0.000,6)    
Total frac: 2.000

Sketch (7) (cm: eps0: 0.000625, del0: 0.05, min_mem: 16.9921875)
Par: 1, Rows: 3
(-0.000,10)    (0.000,12)    (1.000,2)    (0.000,8)    (0.000,14)    (0.000,4)    (0.000,0)    (1.000,13)    (-0.000,9)    (-0.000,5)    (-0.000,11)    (-0.000,7)    (-0.000,3)    
Total frac: 2.000

Sketch (8) (cm: eps0: 0.000625, del0: 0.05, min_mem: 16.9921875)
Par: 1, Rows: 3
(0.000,14)    (1.000,12)    (0.000,11)    (0.000,2)    (0.000,3)    (0.000,1)    (0.000,9)    (0.000,8)    (0.000,6)    (0.000,13)    
Total frac: 1.000

Sketch (9) (cm: eps0: 0.000625, del0: 0.05, min_mem: 16.9921875)
Par: 1, Rows: 3
(-0.000,9)    (-0.000,10)    (-0.000,7)    (-0.000,8)    (-0.000,13)    (1.000,11)    (0.000,14)    (-0.000,12)    (-0.000,5)    (1.000,1)    (-0.000,2)    
Total frac: 2.000

Sketch (10) (cm: eps0: 0.000625, del0: 0.05, min_mem: 16.9921875)
Par: 1, Rows: 3
(0.000,5)    (-0.000,12)    (0.000,2)    (1.000,11)    (0.000,1)    (0.000,10)    (0.000,9)    (0.000,4)    (0.000,3)    (-0.000,0)    (-0.000,6)    (0.000,13)    (1.000,8)    (0.000,14)    (-0.000,7)    
Total frac: 2.000

Sketch (11) (cm: eps0: 0.000625, del0: 0.05, min_mem: 16.9921875)
Par: 1, Rows: 3
(-0.000,3)    (-0.000,4)    (-0.000,13)    (0.000,6)    (-0.000,7)    (-0.000,8)    (0.000,14)    (0.000,5)    (-0.000,11)    (-0.000,1)    (-0.000,12)    (0.000,2)    (1.000,9)    (1.000,10)    
Total frac: 2.000

Sketch (12) (cm: eps0: 0.000625, del0: 0.05, min_mem: 16.9921875)
Par: 1, Rows: 3
(0.000,8)    (0.000,4)    (0.000,2)    (-0.000,10)    (-0.000,6)    (0.000,14)    (-0.000,11)    (1.000,13)    (0.000,12)    (0.000,0)    (0.000,9)    (0.000,5)    
Total frac: 1.000

Sketch (13) (cm: eps0: 0.000625, del0: 0.05, min_mem: 16.9921875)
Par: 1, Rows: 3
(-0.000,13)    (0.000,3)    (-0.000,12)    (-0.000,9)    (0.000,5)    (0.000,2)    (0.000,10)    (0.000,11)    (0.000,7)    (1.000,14)    
Total frac: 1.000

Sketch (14) (cm: eps0: 0.000625, del0: 0.05, min_mem: 16.9921875)
Par: 1, Rows: 3
(-0.000,10)    (0.000,0)    (-0.000,6)    (0.000,8)    (0.000,14)    (-0.000,13)    (-0.000,11)    (1.000,5)    (0.000,12)    
Total frac: 1.000

Sketch (15) (cm: eps0: 0.000625, del0: 0.05, min_mem: 16.9921875)
Par: 1, Rows: 3
(-0.000,11)    (0.000,1)    (-0.000,7)    (-0.000,9)    (-0.000,5)    (-0.000,3)    (0.000,12)    (1.000,2)    (1.000,10)    (0.000,8)    (0.000,14)    (0.000,4)    (-0.000,13)    
Total frac: 2.000

Sketch (16) (cm: eps0: 0.000625, del0: 0.05, min_mem: 16.9921875)
Par: 1, Rows: 3
(-0.000,7)    (0.000,2)    (1.000,6)    (0.000,1)    (-0.000,13)    (-0.000,5)    (0.000,0)    (-0.000,12)    (0.000,4)    (-0.000,11)    (-0.000,3)    (1.000,14)    (-0.000,10)    (-0.000,9)    (0.000,8)    
Total frac: 2.000

Sketch (17) (cm: eps0: 0.000625, del0: 0.05, min_mem: 16.9921875)
Par: 1, Rows: 3
(0.000,0)    (1.000,12)    (0.000,3)    (0.000,9)    (0.000,14)    (0.000,10)    (0.000,8)    (1.000,7)    (0.000,1)    (0.000,13)    (0.000,2)    (0.000,5)    (-0.000,6)    (-0.000,11)    
Total frac: 2.000

Sketch (18) (cm: eps0: 0.000625, del0: 0.05, min_mem: 16.9921875)
Par: 1, Rows: 3
(0.000,8)    (0.000,2)    (0.000,6)    (0.000,1)    (0.000,13)    (0.000,5)    (0.000,7)    (0.000,14)    (0.000,10)    (0.000,0)    (1.000,12)    (0.000,9)    (0.000,4)    (0.000,11)    
Total frac: 1.000

Sketch (19) (cm: eps0: 0.000625, del0: 0.05, min_mem: 16.9921875)
Par: 1, Rows: 3
(1.000,9)    (0.000,14)    (1.000,10)    (0.000,11)    (-0.000,12)    (-0.000,3)    (0.000,4)    (0.000,1)    (0.000,13)    (0.000,8)    (-0.000,5)    (0.000,6)    (0.000,7)    
Total frac: 2.000

Sketch (20) (cm: eps0: 0.000625, del0: 0.05, min_mem: 16.9921875)
Par: 1, Rows: 3
(0.000,13)    (1.000,9)    (0.000,5)    (0.000,12)    (0.000,8)    (0.000,4)    (0.000,10)    (-0.000,6)    (0.000,1)    (1.000,11)    (-0.000,2)    (-0.000,3)    (0.000,14)    
Total frac: 2.000

Sketch (21) (cm: eps0: 0.000625, del0: 0.05, min_mem: 16.9921875)
Par: 1, Rows: 3
(0.000,0)    (0.000,3)    (0.000,13)    (0.000,2)    (1.000,9)    (0.000,5)    (0.000,14)    (-0.000,12)    (-0.000,8)    (0.000,10)    
Total frac: 1.000

Sketch (22) (cm: eps0: 0.000625, del0: 0.05, min_mem: 16.9921875)
Par: 1, Rows: 3
(-0.000,3)    (0.000,10)    (0.000,12)    (1.000,8)    (0.000,4)    (0.000,1)    (-0.000,2)    (0.000,14)    (0.000,13)    (0.000,0)    (1.000,9)    
Total frac: 2.000

Sketch (23) (cm: eps0: 0.000625, del0: 0.05, min_mem: 16.9921875)
Par: 1, Rows: 3
(0.000,6)    (0.000,13)    (1.000,2)    (-0.000,9)    (0.000,5)    (0.000,14)    (1.000,11)    (0.000,7)    (0.000,0)    (-0.000,3)    (0.000,10)    (0.000,12)    (0.000,8)    
Total frac: 2.000

Sketch (24) (cm: eps0: 0.000625, del0: 0.05, min_mem: 16.9921875)
Par: 1, Rows: 3
(0.000,5)    (0.000,4)    (1.000,3)    (0.000,14)    (-0.000,10)    (-0.000,9)    (0.000,8)    (-0.000,7)    (-0.000,2)    (0.000,1)    (1.000,13)    (0.000,12)    (-0.000,11)    
Total frac: 2.000

Sketch (25) (cm: eps0: 0.000625, del0: 0.05, min_mem: 16.9921875)
Par: 1, Rows: 3
(-0.000,8)    (1.000,1)    (0.000,2)    (-0.000,12)    (0.000,3)    (-0.000,9)    
Total frac: 1.000

Sketch (26) (cm: eps0: 0.000625, del0: 0.05, min_mem: 16.9921875)
Par: 1, Rows: 3
(-0.000,11)    (-0.000,14)    (0.000,10)    (-0.000,9)    (0.000,4)    (-0.000,3)    (0.000,6)    (1.000,13)    (0.000,8)    (0.000,7)    (0.000,5)    (0.000,0)    (-0.000,12)    
Total frac: 1.000

Sketch (27) (cm: eps0: 0.000625, del0: 0.05, min_mem: 16.9921875)
Par: 1, Rows: 3
(-0.000,2)    (-0.000,6)    (0.000,7)    (1.000,8)    (0.000,5)    (-0.000,11)    (0.000,0)    (-0.000,12)    (-0.000,9)    (0.000,14)    (-0.000,10)    (-0.000,4)    (-0.000,1)    (1.000,13)    
Total frac: 2.000

Sketch (28) (cm: eps0: 0.000625, del0: 0.05, min_mem: 16.9921875)
Par: 1, Rows: 3
(0.000,6)    (0.000,1)    (0.000,0)    (0.000,11)    (0.000,7)    (0.000,2)    (1.000,13)    (0.000,12)    (0.000,3)    (0.000,14)    (0.000,9)    (0.000,5)    (0.000,8)    (0.000,4)    (0.000,10)    
Total frac: 1.000

Sketch (29) (cm: eps0: 0.000625, del0: 0.05, min_mem: 16.9921875)
Par: 1, Rows: 3
(0.000,12)    (1.000,9)    (0.000,14)    (-0.000,8)    (1.000,4)    (-0.000,1)    (-0.000,10)    (-0.000,6)    (-0.000,11)    (0.000,7)    (1.000,0)    (-0.000,13)    (-0.000,2)    (-0.000,3)    
Total frac: 3.000

Sketch (30) (cm: eps0: 0.000625, del0: 0.05, min_mem: 16.9921875)
Par: 1, Rows: 3
(0.000,2)    (-0.000,13)    (0.000,0)    (-0.000,11)    (0.000,7)    (1.000,14)    (0.000,9)    (0.000,5)    (-0.000,12)    (0.000,3)    (0.000,10)    (-0.000,6)    (-0.000,1)    (-0.000,8)    
Total frac: 1.000

Sketch (31) (cm: eps0: 0.000625, del0: 0.05, min_mem: 16.9921875)
Par: 1, Rows: 3
(0.000,5)    (-0.000,14)    (-0.000,12)    (1.000,10)    (0.000,4)    (-0.000,13)    (-0.000,2)    (-0.000,9)    
Total frac: 1.000

Sketch (32) (cm: eps0: 0.000625, del0: 0.05, min_mem: 16.9921875)
Par: 1, Rows: 3
(-0.000,13)    (1.000,6)    (-0.000,12)    (1.000,5)    (-0.000,11)    (0.000,4)    (-0.000,10)    (-0.000,3)    (1.000,9)    (-0.000,2)    (-0.000,8)    (-0.000,1)    (0.000,0)    (-0.000,7)    (-0.000,14)    
Total frac: 3.000

Sketch (33) (cm: eps0: 0.000625, del0: 0.05, min_mem: 16.9921875)
Par: 1, Rows: 3
(1.000,1)    (-0.000,2)    (-0.000,8)    (-0.000,7)    (0.000,13)    (0.000,14)    (0.000,6)    (1.000,11)    (-0.000,12)    (0.000,4)    (-0.000,9)    (-0.000,10)    
Total frac: 2.000

Sketch (34) (cm: eps0: 0.000625, del0: 0.05, min_mem: 16.9921875)
Par: 1, Rows: 3
(-0.000,5)    (-0.000,10)    (1.000,12)    (-0.000,9)    (0.000,2)    (1.000,11)    (-0.000,1)    (-0.000,3)    (-0.000,8)    (0.000,14)    (-0.000,13)    (-0.000,6)    
Total frac: 2.000

Sketch (35) (cm: eps0: 0.000625, del0: 0.05, min_mem: 16.9921875)
Par: 1, Rows: 3
(0.000,4)    (-0.000,13)    (-0.000,8)    (1.000,14)    (0.000,5)    (-0.000,0)    (0.000,6)    (0.000,7)    (0.000,9)    (-0.000,10)    (0.000,11)    (-0.000,12)    (0.000,1)    (0.000,2)    
Total frac: 1.000

Sketch (36) (cm: eps0: 0.000625, del0: 0.05, min_mem: 16.9921875)
Par: 1, Rows: 3
(1.000,10)    (-0.000,2)    (0.000,14)    (0.000,6)    (-0.000,11)    (-0.000,7)    (-0.000,13)    (1.000,9)    (-0.000,12)    (-0.000,8)    (-0.000,5)    (-0.000,1)    
Total frac: 2.000

Sketch (37) (cm: eps0: 0.000625, del0: 0.05, min_mem: 16.9921875)
Par: 1, Rows: 3
(0.000,7)    (0.000,13)    (0.000,3)    (0.000,9)    (-0.000,5)    (0.000,1)    (-0.000,12)    (1.000,8)    (1.000,4)    (-0.000,10)    (0.000,0)    (0.000,2)    (0.000,14)    (0.000,11)    
Total frac: 2.000

Sketch (38) (cm: eps0: 0.000625, del0: 0.05, min_mem: 16.9921875)
Par: 1, Rows: 3
(-0.000,8)    (1.000,14)    (0.000,4)    (1.000,0)    (0.000,6)    (-0.000,13)    (-0.000,9)    (0.000,11)    (-0.000,1)    (0.000,7)    (-0.000,3)    (0.000,10)    (-0.000,12)    
Total frac: 2.000

Sketch (39) (cm: eps0: 0.000625, del0: 0.05, min_mem: 16.9921875)
Par: 1, Rows: 3
(1.000,9)    (0.000,11)    (0.000,5)    (0.000,1)    (0.000,7)    (-0.000,3)    (1.000,10)    (0.000,12)    (0.000,8)    (-0.000,2)    (0.000,14)    (0.000,4)    (0.000,13)    
Total frac: 2.000

Sketch (40) (cm: eps0: 0.000625, del0: 0.05, min_mem: 16.9921875)
Par: 1, Rows: 3
(-0.000,3)    (-0.000,1)    (-0.000,9)    (0.000,0)    (1.000,8)    (-0.000,13)    (-0.000,6)    (-0.000,12)    (0.000,14)    (-0.000,11)    (-0.000,5)    (0.000,4)    (0.000,2)    (1.000,10)    
Total frac: 2.000

Sketch (41) (cm: eps0: 0.000625, del0: 0.05, min_mem: 16.9921875)
Par: 1, Rows: 3
(0.000,6)    (-0.000,11)    (-0.000,12)    (1.000,14)    (0.000,5)    (0.000,3)    (0.000,4)    (-0.000,2)    (-0.000,9)    (0.000,10)    (0.000,0)    (0.000,8)    (-0.000,7)    (-0.000,13)    
Total frac: 1.000

Sketch (42) (cm: eps0: 0.000625, del0: 0.05, min_mem: 16.9921875)
Par: 1, Rows: 3
(1.000,4)    (-0.000,13)    (-0.000,0)    (0.000,6)    (1.000,8)    (0.000,14)    (-0.000,7)    (0.000,5)    (-0.000,12)    (-0.000,2)    (-0.000,11)    (-0.000,10)    (0.000,1)    (-0.000,9)    
Total frac: 2.000

Sketch (43) (cm: eps0: 0.000625, del0: 0.05, min_mem: 16.9921875)
Par: 1, Rows: 3
(1.000,14)    (0.000,11)    (-0.000,12)    (1.000,2)    (-0.000,9)    (-0.000,10)    (-0.000,3)    (-0.000,4)    (-0.000,13)    (-0.000,0)    (0.000,6)    (-0.000,8)    
Total frac: 2.000

Sketch (44) (cm: eps0: 0.000625, del0: 0.05, min_mem: 16.9921875)
Par: 1, Rows: 3
(0.000,7)    (0.000,13)    (1.000,12)    (0.000,3)    (0.000,1)    (-0.000,9)    (0.000,0)    (0.000,8)    (0.000,5)    (0.000,2)    (0.000,10)    (0.000,14)    (0.000,11)    
Total frac: 1.000

Sketch (45) (cm: eps0: 0.000625, del0: 0.05, min_mem: 16.9921875)
Par: 1, Rows: 3
(0.000,0)    (0.000,8)    (0.000,10)    (0.000,11)    (0.000,7)    (0.000,14)    (0.000,13)    (0.000,3)    (1.000,12)    (0.000,9)    (0.000,5)    
Total frac: 1.000

Sketch (46) (cm: eps0: 0.000625, del0: 0.05, min_mem: 16.9921875)
Par: 1, Rows: 3
(0.000,11)    (0.000,1)    (-0.000,9)    (0.000,5)    (1.000,12)    (-0.000,2)    (0.000,3)    (-0.000,10)    (0.000,0)    (0.000,6)    (0.000,8)    (-0.000,14)    (-0.000,4)    (-0.000,13)    
Total frac: 1.000

Sketch (47) (cm: eps0: 0.000625, del0: 0.05, min_mem: 16.9921875)
Par: 1, Rows: 3
(-0.000,10)    (1.000,0)    (-0.000,6)    (-0.000,8)    (0.000,14)    (0.000,4)    (1.000,13)    (-0.000,11)    (0.000,1)    (-0.000,9)    (-0.000,5)    (-0.000,3)    (-0.000,12)    
Total frac: 2.000

Sketch (48) (cm: eps0: 0.000625, del0: 0.05, min_mem: 16.9921875)
Par: 1, Rows: 3
(-0.000,11)    (0.000,10)    (0.000,3)    (1.000,14)    (0.000,9)    (-0.000,8)    (0.000,7)    (0.000,2)    (-0.000,13)    (-0.000,6)    (0.000,1)    (-0.000,12)    (0.000,5)    (-0.000,0)    
Total frac: 1.000

Sketch (49) (cm: eps0: 0.000625, del0: 0.05, min_mem: 16.9921875)
Par: 1, Rows: 3
(0.000,13)    (-0.000,1)    (-0.000,2)    (0.000,6)    (0.000,11)    (0.000,12)    (1.000,0)    (-0.000,3)    (1.000,9)    (0.000,14)    (-0.000,8)    
Total frac: 2.000

Sketch (50) (cm: eps0: 0.000625, del0: 0.05, min_mem: 16.9921875)
Par: 1, Rows: 3
(-0.000,12)    (1.000,14)    (-0.000,9)    (0.000,11)    (-0.000,3)    (0.000,8)    (-0.000,13)    (0.000,1)    (-0.000,5)    (0.000,7)    (-0.000,10)    
Total frac: 1.000

Sketch (51) (cm: eps0: 0.000625, del0: 0.05, min_mem: 16.9921875)
Par: 1, Rows: 3
(-0.000,13)    (1.000,8)    (0.000,1)    (0.000,2)    (0.000,6)    (0.000,9)    (0.000,11)    (-0.000,12)    (-0.000,14)    (0.000,0)    (0.000,3)    
Total frac: 1.000

Sketch (52) (cm: eps0: 0.000625, del0: 0.05, min_mem: 16.9921875)
Par: 1, Rows: 3
(0.000,6)    (0.000,11)    (0.000,7)    (0.000,2)    (1.000,13)    (0.000,3)    (0.000,14)    (0.000,9)    (0.000,12)    (0.000,5)    (0.000,10)    
Total frac: 1.000

Sketch (53) (cm: eps0: 0.000625, del0: 0.05, min_mem: 16.9921875)
Par: 1, Rows: 3
(-0.000,2)    (0.000,5)    (0.000,14)    (-0.000,12)    (1.000,8)    (-0.000,4)    (1.000,10)    (-0.000,1)    (0.000,6)    (-0.000,11)    (-0.000,7)    (0.000,0)    (-0.000,13)    (-0.000,9)    
Total frac: 2.000

Sketch (54) (cm: eps0: 0.000625, del0: 0.05, min_mem: 16.9921875)
Par: 1, Rows: 3
(0.000,6)    (0.000,1)    (-0.000,13)    (1.000,14)    (0.000,9)    (0.000,11)    (0.000,5)    (0.000,7)    (0.000,3)    (0.000,10)    (-0.000,12)    (0.000,8)    (0.000,4)    
Total frac: 1.000

Sketch (55) (cm: eps0: 0.000625, del0: 0.05, min_mem: 16.9921875)
Par: 1, Rows: 3
(0.000,7)    (0.000,0)    (0.000,3)    (-0.000,10)    (-0.000,12)    (0.000,8)    (0.000,1)    (-0.000,4)    (0.000,6)    (1.000,13)    (0.000,9)    (0.000,2)    (-0.000,11)    (1.000,5)    (-0.000,14)    
Total frac: 2.000

Sketch (56) (cm: eps0: 0.000625, del0: 0.05, min_mem: 16.9921875)
Par: 1, Rows: 3
(-0.000,7)    (0.000,2)    (0.000,13)    (-0.000,6)    (0.000,12)    (0.000,0)    (1.000,11)    (0.000,4)    (0.000,10)    (1.000,3)    (-0.000,9)    (0.000,8)    
Total frac: 2.000

Sketch (57) (cm: eps0: 0.000625, del0: 0.05, min_mem: 16.9921875)
Par: 1, Rows: 3
(0.000,5)    (0.000,4)    (-0.000,10)    (0.000,14)    (0.000,8)    (-0.000,7)    (-0.000,13)    (0.000,1)    (0.000,6)    (1.000,11)    (0.000,12)    
Total frac: 1.000

Sketch (58) (cm: eps0: 0.000625, del0: 0.05, min_mem: 16.9921875)
Par: 1, Rows: 3
(1.000,13)    (0.000,6)    (0.000,1)    (0.000,8)    (0.000,7)    (0.000,5)    (0.000,12)    (0.000,11)    (0.000,10)    (0.000,14)    (0.000,9)    (0.000,4)    (0.000,2)    
Total frac: 1.000

Sketch (59) (cm: eps0: 0.000625, del0: 0.05, min_mem: 16.9921875)
Par: 1, Rows: 3
(-0.000,12)    (-0.000,0)    (0.000,9)    (-0.000,10)    (-0.000,14)    (0.000,3)    (0.000,4)    (-0.000,13)    (0.000,1)    (-0.000,6)    (-0.000,8)    (-0.000,7)    (1.000,5)    (1.000,11)    
Total frac: 2.000

Sketch (60) (cm: eps0: 0.000625, del0: 0.05, min_mem: 16.9921875)
Par: 1, Rows: 3
(0.000,3)    (0.000,14)    (0.000,9)    (0.000,8)    (0.000,5)    (0.000,10)    (0.000,1)    (0.000,0)    (0.000,11)    (0.000,7)    (0.000,2)    (0.000,13)    (1.000,12)    
Total frac: 1.000

Sketch (61) (cm: eps0: 0.000625, del0: 0.05, min_mem: 16.9921875)
Par: 1, Rows: 3
(-0.000,11)    (-0.000,7)    (-0.000,13)    (-0.000,2)    (-0.000,12)    (-0.000,9)    (1.000,14)    
Total frac: 1.000

Sketch (62) (cm: eps0: 0.000625, del0: 0.05, min_mem: 16.9921875)
Par: 1, Rows: 3
(-0.000,9)    (1.000,12)    (0.000,3)    (0.000,10)    (0.000,1)    (0.000,8)    (0.000,4)    (0.000,2)    (0.000,13)    (0.000,0)    (0.000,14)    
Total frac: 1.000

Sketch (63) (cm: eps0: 0.000625, del0: 0.05, min_mem: 16.9921875)
Par: 1, Rows: 3
(0.000,8)    (0.000,4)    (-0.000,13)    (0.000,2)    (1.000,11)    (0.000,7)    (0.000,9)    (0.000,14)    (0.000,12)    (0.000,1)    (0.000,10)    (0.000,6)    
Total frac: 1.000

Device (0) CPU1:
cores_sketch: 4.0, cores_dpdk: 3.0
Rows total: 12.0
Mem total: 203.90625
Throughput: 70.00000000000007

Device (1) CPU2:
cores_sketch: 4.0, cores_dpdk: 3.0
Rows total: 12.0
Mem total: 203.90625
Throughput: 70.00000000000007

Device (2) CPU3:
cores_sketch: 4.0, cores_dpdk: 3.0
Rows total: 12.0
Mem total: 203.90625
Throughput: 70.00000000000007

Device (3) CPU4:
cores_sketch: 3.0, cores_dpdk: 3.0
Rows total: 9.0
Mem total: 152.9296875
Throughput: 70.00000000000021

Device (4) CPU5:
cores_sketch: 4.0, cores_dpdk: 3.0
Rows total: 12.0
Mem total: 203.90625
Throughput: 70.00000000000007

Device (5) CPU6:
cores_sketch: 4.0, cores_dpdk: 3.0
Rows total: 12.0
Mem total: 203.90625
Throughput: 70.00000000000007

Device (6) CPU7:
cores_sketch: 3.0, cores_dpdk: 3.0
Rows total: 9.0
Mem total: 152.9296875
Throughput: 70.00000000000021

Device (7) CPU8:
cores_sketch: 1.0, cores_dpdk: 3.0
Rows total: 3.0
Mem total: 50.9765625
Throughput: 70.00000000000007

Device (8) tor_P41:
Rows total: 33.0
Mem total: 560.7421875
Throughput: 148.0

Device (9) tor_P42:
Rows total: 33.0
Mem total: 560.7421875
Throughput: 148.0

Device (10) tor_P43:
Rows total: 33.0
Mem total: 560.7421875
Throughput: 148.0

Device (11) tor_P44:
Rows total: 33.0
Mem total: 560.7421875
Throughput: 148.0

Device (12) l1_P41:
Rows total: 33.0
Mem total: 560.7421875
Throughput: 148.0

Device (13) l1_P42:
Rows total: 33.0
Mem total: 560.7421875
Throughput: 148.0

Device (14) l2_P4:
Rows total: 33.0
Mem total: 560.7421875
Throughput: 148.0
--------------------------------------------------
Function: MIP.solve took 2.619093656539917 seconds
Function: solve took 2.6210238933563232 seconds
